2
1000 6
83
128 1 1
256 1 1
130 1 1
259 1 1
132 1 1
265 1 1
213 1 1
141 1 1
143 1 1
16 1 3
20 1 1
150 1 1
151 1 1
24 1 1
153 1 1
26 1 1
155 1 1
28 1 2
30 1 1
32 1 1
161 1 1
164 1 1
38 1 2
167 1 1
169 1 1
42 1 1
171 1 1
240 1 1
49 1 1
180 1 1
181 1 3
54 1 1
184 1 1
185 1 1
59 1 1
60 1 2
227 1 1
64 1 1
193 1 1
196 1 2
246 1 1
71 1 2
177 1 1
202 1 2
203 1 1
77 1 1
78 1 1
79 1 2
209 1 1
211 1 1
224 1 1
85 1 1
86 1 2
215 1 1
216 1 1
90 1 2
91 1 1
199 1 1
95 1 1
96 1 1
97 1 1
226 1 1
99 1 1
228 1 1
101 1 1
102 1 1
103 1 1
232 1 1
225 1 2
253 1 2
112 1 1
113 1 1
258 1 1
229 1 1
119 1 2
241 1 1
148 1 1
250 1 2
123 1 1
247 1 1
125 1 1
126 1 1
127 1 1
